instances/p2/p2_15_13-1.dzn
Alphabet = {A,C,G,T};
ns = 15;
nc = 12;
neighbours = [| I(G),Null,Null,Null,Null,Null,Null,Null,Null,Null,Null,Null | I(C),I(A),I(G),I(C),I(A),I(T),I(C),I(C),I(A),I(T),I(C),Null | I(T),I(T),I(T),I(C),I(T),I(T),I(G),I(T),I(C),I(C),Null,Null | I(C),I(A),I(A),I(A),I(A),I(C),I(G),I(T),I(C),Null,Null,Null | I(T),I(C),Null,Null,Null,Null,Null,Null,Null,Null,Null,Null | I(G),Null,Null,Null,Null,Null,Null,Null,Null,Null,Null,Null | Null,Null,Null,Null,Null,Null,Null,Null,Null,Null,Null,Null | I(A),Null,Null,Null,Null,Null,Null,Null,Null,Null,Null,Null | I(A),I(A),I(A),I(A),I(C),I(T),I(C),Null,Null,Null,Null,Null | I(A),I(T),Null,Null,Null,Null,Null,Null,Null,Null,Null,Null | I(A),I(T),Null,Null,Null,Null,Null,Null,Null,Null,Null,Null | I(C),I(G),I(C),I(C),I(A),I(T),I(T),I(A),Null,Null,Null,Null | I(A),I(A),I(A),I(G),Null,Null,Null,Null,Null,Null,Null,Null | I(A),I(T),I(T),I(C),I(G),I(G),I(G),I(T),I(C),I(C),I(G),Null | I(A),I(A),I(C),I(C),I(T),I(A),I(A),I(C),I(C),I(T),I(G),I(G) |];
